30
0   202   205
1   207   207
2   107   101
3   103   101
4   54   57
5   54   54
6   31   29
7   32   27
8   13   16
9   13   19
10   10   10
11   11   13
12   10   4
13   9   7
14   4   7
15   8   3
16   5   1
17   3   1
18   1   1
19   6   5
20   1   4
21   6   2
22   4   6
23   1   5
24   2   7
25   4   4
26   5   2
27   3   2
28   6   2
29   7   4
400
